Route #1: 33 78 76 166 180 175 97 136 182 115 59 173 50 201 46 149 10 206 191
Route #2: 47 49 39 38 73 125 159 195 56 81 22 94 74 29 88 43 192 188 130 141 139 77 87 133 189
Route #3: 124 135 167 40 11 129 5 41 157 104 204 177 156 212 2 147 91 62 48 144 168 181 13
Route #4: 64 200 186 187 17 63 68 132 45 53 117 27 82 93 120 80
Route #5: 55 36 162 160 30 196 3 199 60 142 18 110 176 108 42 79 197 131 101
Route #6: 155 21 126 198 9 134 146 90 86 54 119 171 178 194 19 15 98 34 163 99
Route #7: 169 6 116 70 23 105 158 123 179 92 210 83 7 172 137 96
Route #8: 4 72 203 35 1 111 57 128 165 67 154 112 202 211 174 140 143
Route #9: 75 28 100 85 61 69 89 8 170 25 52 127 12 121 32 107 31
Route #10: 58 103 207 44 145 150 184 95 113 122 114 16 14 66 37 164 51 183 109 205 20 161 190 153
Route #11: 193 106 65 71 138 152 209 26 213 148 102 185 118 208 24 84 151
